50 1812
656 605 809 537 787 895 232 239 1061 696 534 916 398 640 816 1086 590 1045 615 485 452 718 400 830 613 250 681 509 125 390 681 791 1006 341 1069 365 250 745 579 212 678 1048 644 530 221 275 1019 539 925 624 
556 505 709 437 687 795 132 139 961 596 434 816 298 540 716 986 490 945 515 385 352 618 300 730 513 150 581 409 25 290 581 691 906 241 969 265 150 645 479 112 578 948 544 430 121 175 919 439 825 524 
